c description: Subset cardinality formula for Random regular bipartite with (5,5) vertices and left degree 4 + 1 random edges
c generator: CNFgen (0.9.0)
c copyright: (C) 2012-2020 Massimo Lauria <massimo.lauria@uniroma1.it>
c url: https://massimolauria.net/cnfgen
c command line: cnfgen subsetcard 5
c
p cnf 21 52
1 2 3 0
1 2 4 0
1 3 4 0
2 3 4 0
5 6 7 0
5 6 8 0
5 6 9 0
5 7 8 0
5 7 9 0
5 8 9 0
6 7 8 0
6 7 9 0
6 8 9 0
7 8 9 0
10 11 12 0
10 11 13 0
10 12 13 0
11 12 13 0
14 15 16 0
14 15 17 0
14 16 17 0
15 16 17 0
18 19 20 0
18 19 21 0
18 20 21 0
19 20 21 0
-5 -10 -14 0
-5 -10 -18 0
-5 -14 -18 0
-10 -14 -18 0
-1 -6 -11 0
-1 -6 -19 0
-1 -11 -19 0
-6 -11 -19 0
-2 -7 -15 0
-2 -7 -20 0
-2 -15 -20 0
-7 -15 -20 0
-3 -8 -12 0
-3 -8 -16 0
-3 -12 -16 0
-8 -12 -16 0
-4 -9 -13 0
-4 -9 -17 0
-4 -9 -21 0
-4 -13 -17 0
-4 -13 -21 0
-4 -17 -21 0
-9 -13 -17 0
-9 -13 -21 0
-9 -17 -21 0
-13 -17 -21 0
